g3 0 1 0	# problem d4n12R6R7d001d1
 12 12 1 0 6	# vars, constraints, objectives, ranges, eqns
 2 1	# nonlinear constraints, objectives
 0 0	# network constraints: nonlinear, linear
 12 12 12	# nonlinear vars in constraints, objectives, both
 0 0 0 1	# linear network variables; functions; arith, flags
 0 0 0 0 0	# discrete variables: binary, integer, nonlinear (b,c,o)
 144 12	# nonzeros in Jacobian, gradients
 0 0	# max name lengths: constraints, variables
 0 0 0 0 0	# common exprs: b,c,o,c1,o1
b
0 0.01 2.17
0 0.85 2.08
0 0.99 2.68
0 0.29 2.96
0 0.45 2.91
0 0.97 2.18
0 0.86 2.99
0 0.48 2.63
0 0.07 2.14
0 0.19 2.45
0 0.45 2.49
0 0.6 2.07
r
2 84.742
2 358.617
4 54.876
4 71.267
4 68.197
4 49.108
4 31.814
4 104.401
2 65.395
2 84.739
2 20.444
2 93.992
C0
o2
o2
o2
n0.79
v0
v9
v11
C1
o54
18
o2
o2
o2
n2.22
v0
v9
v11
o2
o2
o2
o2
n5.59
v0
v1
v7
v10
o2
o2
o2
o2
n6.93
v0
v2
v2
v7
o2
o2
o2
o2
n0.5
v0
v2
v5
v9
o2
o2
o2
o2
n9.23
v0
v2
v5
v10
o16
o2
o2
o2
o2
n2.77
v1
v1
v2
v7
o2
o2
o2
o2
n0.59
v1
v1
v3
v9
o2
o2
o2
o2
n3.01
v1
v2
v8
v11
o16
o2
o2
o2
o2
n2.61
v1
v4
v5
v5
o2
o2
o2
o2
n1.29
v1
v4
v6
v11
o2
o2
o2
o2
n6.71
v2
v2
v3
v4
o2
o2
o2
o2
n6.64
v3
v4
v8
v10
o16
o2
o2
o2
o2
n1.87
v3
v5
v9
v9
o2
o2
o2
o2
n9.82
v4
v4
v9
v11
o2
o2
o2
o2
n2.24
v5
v9
v11
v11
o2
o2
o2
o2
n3.47
v6
v6
v8
v10
o2
o2
o2
o2
n0.85
v7
v7
v7
v7
o2
o2
o2
o2
n8.67
v8
v9
v10
v10
C2
n0
C3
n0
C4
n0
C5
n0
C6
n0
C7
n0
C8
n0
C9
n0
C10
n0
C11
n0
O0 0
o54
18
o2
o2
o2
n9.53
v0
v9
v11
o2
o2
o2
o2
n2.22
v0
v1
v7
v10
o2
o2
o2
o2
n2.3
v0
v2
v2
v7
o2
o2
o2
o2
n2.29
v0
v2
v5
v9
o16
o2
o2
o2
o2
n8.39
v0
v2
v5
v10
o2
o2
o2
o2
n8.9
v1
v1
v2
v7
o2
o2
o2
o2
n4.69
v1
v1
v3
v9
o2
o2
o2
o2
n0.1
v1
v2
v8
v11
o2
o2
o2
o2
n7.04
v1
v4
v5
v5
o2
o2
o2
o2
n9.98
v1
v4
v6
v11
o2
o2
o2
o2
n7.85
v2
v2
v3
v4
o2
o2
o2
o2
n0.43
v3
v4
v8
v10
o16
o2
o2
o2
o2
n4.2
v3
v5
v9
v9
o2
o2
o2
o2
n5.83
v4
v4
v9
v11
o2
o2
o2
o2
n2.7
v5
v9
v11
v11
o16
o2
o2
o2
o2
n9.84
v6
v6
v8
v10
o2
o2
o2
o2
n2.91
v7
v7
v7
v7
o2
o2
o2
o2
n8.27
v8
v9
v10
v10
k11
12
24
36
48
60
72
84
96
108
120
132
J0 12
0 0.11
1 0.73
2 5.85
3 4.92
4 9.08
5 3.85
6 1.7
7 9.42
8 3.82
9 9.22
10 4.94
11 0.31
J1 12
0 2.46
1 4.55
2 2.29
3 6.79
4 4.91
5 3.08
6 4.74
7 3.24
8 1.87
9 1.55
10 5.68
11 1.68
J2 12
0 7.79
1 3.99
2 -9.79
3 9.26
4 3.63
5 7.76
6 9.42
7 3.58
8 -8.23
9 0.83
10 4.42
11 2.2
J3 12
0 0.69
1 8.54
2 6.22
3 3.2
4 1
5 0.93
6 3.62
7 7.98
8 1.09
9 -2.55
10 9.32
11 5.49
J4 12
0 8.78
1 0.89
2 -7.33
3 8.73
4 4.93
5 1.54
6 9.33
7 5.38
8 5.96
9 0.58
10 7.61
11 0.76
J5 12
0 5.18
1 -4.27
2 8.79
3 5.6
4 9.58
5 4.72
6 -5.61
7 9.97
8 -1.04
9 1.88
10 4.12
11 -8.34
J6 12
0 -2.25
1 1.22
2 6.81
3 -4.51
4 -0.08
5 1.26
6 2.37
7 -2.8
8 8.03
9 9.02
10 -3.35
11 7.04
J7 12
0 9.87
1 1.19
2 9.21
3 4.99
4 9.83
5 8.42
6 5.14
7 1.79
8 3.2
9 7.39
10 3.45
11 4.55
J8 12
0 5.33
1 8.88
2 9.96
3 1.33
4 6.85
5 2.62
6 0.26
7 -6.43
8 1.9
9 5.48
10 3.18
11 4.49
J9 12
0 -4.24
1 3.77
2 8.77
3 -5.01
4 8.67
5 5.84
6 7.65
7 4.73
8 7.82
9 2.81
10 8.32
11 4.09
J10 12
0 1.26
1 2
2 3.56
3 2.15
4 -6.36
5 0.14
6 1.26
7 2.21
8 1.4
9 9.47
10 0.74
11 -3.31
J11 12
0 5.4
1 0.74
2 3.94
3 8.57
4 7.79
5 0.66
6 8.75
7 7.16
8 4.8
9 9.88
10 1.06
11 2.89
G0 12
0 2.91
1 7.13
2 8.43
3 8.12
4 0.56
5 1
6 2.49
7 8.18
8 9.64
9 3.01
10 3.18
11 3.94
